3 
4  24 47 
5  03 17 32 46 
6  01 16 31 46 
7  01 16 31 46 
8  01 16 31 46 
9  01 16 31 46 
10  01 17 32 47 
11  02 17 32 47 
12  02 17 32 47 
13  02 17 30 45 
14  03 18 33 48 
15  05 20 34 49 
16  04 19 34 49 
17  04 19 34 48 
18  03 18 30 45 
19  00 15 28 42 57 
20  12 27 42 57 
21  12 27 42 57 
22  12 27 44 56 
23  09 22 
0 
